c File: flat50_3_0.col
c
c SOURCE: Joseph Culberson (joe@cs.ualberta.ca)
c DESCRIPTION: Quasi-random coloring problem
c              generated with flatness = 0
c                             probability = 0.139
c                             known coloring = 3
c                             random seed = 1397
c              Creation Date:  Tue Jun  9 12:08:21 1998
c Maximum degree = 8 Minimum degree = 1
c p edge 50 115
c cnf created by edge2cnf
p cnf 150 545
-1 -2 0
-1 -3 0
-2 -3 0
1 2 3 0
-4 -5 0
-4 -6 0
-5 -6 0
4 5 6 0
-7 -8 0
-7 -9 0
-8 -9 0
7 8 9 0
-10 -11 0
-10 -12 0
-11 -12 0
10 11 12 0
-13 -14 0
-13 -15 0
-14 -15 0
13 14 15 0
-16 -17 0
-16 -18 0
-17 -18 0
16 17 18 0
-19 -20 0
-19 -21 0
-20 -21 0
19 20 21 0
-22 -23 0
-22 -24 0
-23 -24 0
22 23 24 0
-25 -26 0
-25 -27 0
-26 -27 0
25 26 27 0
-28 -29 0
-28 -30 0
-29 -30 0
28 29 30 0
-31 -32 0
-31 -33 0
-32 -33 0
31 32 33 0
-34 -35 0
-34 -36 0
-35 -36 0
34 35 36 0
-37 -38 0
-37 -39 0
-38 -39 0
37 38 39 0
-40 -41 0
-40 -42 0
-41 -42 0
40 41 42 0
-43 -44 0
-43 -45 0
-44 -45 0
43 44 45 0
-46 -47 0
-46 -48 0
-47 -48 0
46 47 48 0
-49 -50 0
-49 -51 0
-50 -51 0
49 50 51 0
-52 -53 0
-52 -54 0
-53 -54 0
52 53 54 0
-55 -56 0
-55 -57 0
-56 -57 0
55 56 57 0
-58 -59 0
-58 -60 0
-59 -60 0
58 59 60 0
-61 -62 0
-61 -63 0
-62 -63 0
61 62 63 0
-64 -65 0
-64 -66 0
-65 -66 0
64 65 66 0
-67 -68 0
-67 -69 0
-68 -69 0
67 68 69 0
-70 -71 0
-70 -72 0
-71 -72 0
70 71 72 0
-73 -74 0
-73 -75 0
-74 -75 0
73 74 75 0
-76 -77 0
-76 -78 0
-77 -78 0
76 77 78 0
-79 -80 0
-79 -81 0
-80 -81 0
79 80 81 0
-82 -83 0
-82 -84 0
-83 -84 0
82 83 84 0
-85 -86 0
-85 -87 0
-86 -87 0
85 86 87 0
-88 -89 0
-88 -90 0
-89 -90 0
88 89 90 0
-91 -92 0
-91 -93 0
-92 -93 0
91 92 93 0
-94 -95 0
-94 -96 0
-95 -96 0
94 95 96 0
-97 -98 0
-97 -99 0
-98 -99 0
97 98 99 0
-100 -101 0
-100 -102 0
-101 -102 0
100 101 102 0
-103 -104 0
-103 -105 0
-104 -105 0
103 104 105 0
-106 -107 0
-106 -108 0
-107 -108 0
106 107 108 0
-109 -110 0
-109 -111 0
-110 -111 0
109 110 111 0
-112 -113 0
-112 -114 0
-113 -114 0
112 113 114 0
-115 -116 0
-115 -117 0
-116 -117 0
115 116 117 0
-118 -119 0
-118 -120 0
-119 -120 0
118 119 120 0
-121 -122 0
-121 -123 0
-122 -123 0
121 122 123 0
-124 -125 0
-124 -126 0
-125 -126 0
124 125 126 0
-127 -128 0
-127 -129 0
-128 -129 0
127 128 129 0
-130 -131 0
-130 -132 0
-131 -132 0
130 131 132 0
-133 -134 0
-133 -135 0
-134 -135 0
133 134 135 0
-136 -137 0
-136 -138 0
-137 -138 0
136 137 138 0
-139 -140 0
-139 -141 0
-140 -141 0
139 140 141 0
-142 -143 0
-142 -144 0
-143 -144 0
142 143 144 0
-145 -146 0
-145 -147 0
-146 -147 0
145 146 147 0
-148 -149 0
-148 -150 0
-149 -150 0
148 149 150 0
-61 -1 0
-62 -2 0
-63 -3 0
-70 -1 0
-71 -2 0
-72 -3 0
-82 -1 0
-83 -2 0
-84 -3 0
-91 -1 0
-92 -2 0
-93 -3 0
-136 -1 0
-137 -2 0
-138 -3 0
-88 -4 0
-89 -5 0
-90 -6 0
-139 -4 0
-140 -5 0
-141 -6 0
-145 -4 0
-146 -5 0
-147 -6 0
-73 -7 0
-74 -8 0
-75 -9 0
-85 -7 0
-86 -8 0
-87 -9 0
-112 -7 0
-113 -8 0
-114 -9 0
-121 -7 0
-122 -8 0
-123 -9 0
-148 -7 0
-149 -8 0
-150 -9 0
-52 -10 0
-53 -11 0
-54 -12 0
-106 -10 0
-107 -11 0
-108 -12 0
-127 -10 0
-128 -11 0
-129 -12 0
-91 -13 0
-92 -14 0
-93 -15 0
-100 -13 0
-101 -14 0
-102 -15 0
-112 -13 0
-113 -14 0
-114 -15 0
-121 -13 0
-122 -14 0
-123 -15 0
-79 -16 0
-80 -17 0
-81 -18 0
-142 -16 0
-143 -17 0
-144 -18 0
-61 -19 0
-62 -20 0
-63 -21 0
-91 -19 0
-92 -20 0
-93 -21 0
-112 -19 0
-113 -20 0
-114 -21 0
-115 -19 0
-116 -20 0
-117 -21 0
-133 -19 0
-134 -20 0
-135 -21 0
-139 -19 0
-140 -20 0
-141 -21 0
-61 -22 0
-62 -23 0
-63 -24 0
-76 -22 0
-77 -23 0
-78 -24 0
-82 -22 0
-83 -23 0
-84 -24 0
-85 -22 0
-86 -23 0
-87 -24 0
-103 -22 0
-104 -23 0
-105 -24 0
-106 -22 0
-107 -23 0
-108 -24 0
-61 -25 0
-62 -26 0
-63 -27 0
-64 -25 0
-65 -26 0
-66 -27 0
-85 -25 0
-86 -26 0
-87 -27 0
-88 -25 0
-89 -26 0
-90 -27 0
-103 -25 0
-104 -26 0
-105 -27 0
-127 -25 0
-128 -26 0
-129 -27 0
-136 -25 0
-137 -26 0
-138 -27 0
-64 -28 0
-65 -29 0
-66 -30 0
-76 -28 0
-77 -29 0
-78 -30 0
-88 -28 0
-89 -29 0
-90 -30 0
-97 -28 0
-98 -29 0
-99 -30 0
-124 -28 0
-125 -29 0
-126 -30 0
-133 -28 0
-134 -29 0
-135 -30 0
-112 -31 0
-113 -32 0
-114 -33 0
-124 -31 0
-125 -32 0
-126 -33 0
-130 -31 0
-131 -32 0
-132 -33 0
-136 -31 0
-137 -32 0
-138 -33 0
-58 -34 0
-59 -35 0
-60 -36 0
-73 -34 0
-74 -35 0
-75 -36 0
-97 -34 0
-98 -35 0
-99 -36 0
-70 -37 0
-71 -38 0
-72 -39 0
-109 -37 0
-110 -38 0
-111 -39 0
-124 -37 0
-125 -38 0
-126 -39 0
-139 -37 0
-140 -38 0
-141 -39 0
-145 -37 0
-146 -38 0
-147 -39 0
-58 -40 0
-59 -41 0
-60 -42 0
-100 -40 0
-101 -41 0
-102 -42 0
-109 -40 0
-110 -41 0
-111 -42 0
-118 -40 0
-119 -41 0
-120 -42 0
-91 -43 0
-92 -44 0
-93 -45 0
-148 -43 0
-149 -44 0
-150 -45 0
-64 -46 0
-65 -47 0
-66 -48 0
-70 -46 0
-71 -47 0
-72 -48 0
-97 -46 0
-98 -47 0
-99 -48 0
-100 -46 0
-101 -47 0
-102 -48 0
-121 -46 0
-122 -47 0
-123 -48 0
-142 -46 0
-143 -47 0
-144 -48 0
-145 -46 0
-146 -47 0
-147 -48 0
-55 -49 0
-56 -50 0
-57 -51 0
-64 -49 0
-65 -50 0
-66 -51 0
-82 -49 0
-83 -50 0
-84 -51 0
-100 -49 0
-101 -50 0
-102 -51 0
-103 -49 0
-104 -50 0
-105 -51 0
-136 -49 0
-137 -50 0
-138 -51 0
-112 -52 0
-113 -53 0
-114 -54 0
-136 -55 0
-137 -56 0
-138 -57 0
-106 -58 0
-107 -59 0
-108 -60 0
-109 -58 0
-110 -59 0
-111 -60 0
-109 -61 0
-110 -62 0
-111 -63 0
-121 -61 0
-122 -62 0
-123 -63 0
-130 -61 0
-131 -62 0
-132 -63 0
-133 -61 0
-134 -62 0
-135 -63 0
-139 -64 0
-140 -65 0
-141 -66 0
-136 -67 0
-137 -68 0
-138 -69 0
-148 -67 0
-149 -68 0
-150 -69 0
-124 -70 0
-125 -71 0
-126 -72 0
-130 -70 0
-131 -71 0
-132 -72 0
-148 -73 0
-149 -74 0
-150 -75 0
-121 -76 0
-122 -77 0
-123 -78 0
-124 -76 0
-125 -77 0
-126 -78 0
-136 -76 0
-137 -77 0
-138 -78 0
-103 -79 0
-104 -80 0
-105 -81 0
-133 -79 0
-134 -80 0
-135 -81 0
-145 -79 0
-146 -80 0
-147 -81 0
-106 -82 0
-107 -83 0
-108 -84 0
-121 -82 0
-122 -83 0
-123 -84 0
-106 -85 0
-107 -86 0
-108 -87 0
-109 -85 0
-110 -86 0
-111 -87 0
-127 -85 0
-128 -86 0
-129 -87 0
-133 -85 0
-134 -86 0
-135 -87 0
-139 -88 0
-140 -89 0
-141 -90 0
-118 -91 0
-119 -92 0
-120 -93 0
-136 -91 0
-137 -92 0
-138 -93 0
-103 -94 0
-104 -95 0
-105 -96 0
-130 -94 0
-131 -95 0
-132 -96 0
-145 -94 0
-146 -95 0
-147 -96 0
-103 -97 0
-104 -98 0
-105 -99 0
-142 -97 0
-143 -98 0
-144 -99 0
-109 -100 0
-110 -101 0
-111 -102 0
-124 -100 0
-125 -101 0
-126 -102 0
-133 -100 0
-134 -101 0
-135 -102 0
